param set_len = 16;
param target_sum = 2643836154;
param values := [0] 212589909 [1] 345638839 [2] 370679436 [3] 473599000 [4] 83124547 [5] 406911495 [6] 185444337 [7] 246795246 [8] 484717783 [9] 410348058 [10] 500354919 [11] 120266978 [12] 388173292 [13] 396498398 [14] 22555515 [15] 257670269 ;
